86,28
36,24
88,79
87,14
2,48
74,40
45,13
86,76
68,98
93,25
77,91
5,30
14,44
67,73
32,40
6,67
62,66
45,24
59,77
69,89
27,74
5,61
27,92
7,63
73,53
65,98
92,48
68,58
26,10
3,89
43,75
99,25
44,41
75,56
30,51
23,77
80,27
77,59
38,85
77,23
9,44
51,24
20,15
87,82
79,49
17,73
19,57
66,43
64,49
30,31